certificates/rado_a5_c261_N51.cnf
c Rad2 upper bound instance: x1 + 5*x2 - x3 = 261, interval [1,51]
p cnf 51 450
1 7 51 0
-1 -7 -51 0
2 8 51 0
-2 -8 -51 0
3 9 51 0
-3 -9 -51 0
4 10 51 0
-4 -10 -51 0
5 11 51 0
-5 -11 -51 0
1 12 50 0
-1 -12 -50 0
6 12 51 0
-6 -12 -51 0
2 13 50 0
-2 -13 -50 0
7 13 51 0
-7 -13 -51 0
3 14 50 0
-3 -14 -50 0
8 14 51 0
-8 -14 -51 0
4 15 50 0
-4 -15 -50 0
9 15 51 0
-9 -15 -51 0
5 16 50 0
-5 -16 -50 0
10 16 51 0
-10 -16 -51 0
1 17 49 0
-1 -17 -49 0
6 17 50 0
-6 -17 -50 0
11 17 51 0
-11 -17 -51 0
2 18 49 0
-2 -18 -49 0
7 18 50 0
-7 -18 -50 0
12 18 51 0
-12 -18 -51 0
3 19 49 0
-3 -19 -49 0
8 19 50 0
-8 -19 -50 0
13 19 51 0
-13 -19 -51 0
4 20 49 0
-4 -20 -49 0
9 20 50 0
-9 -20 -50 0
14 20 51 0
-14 -20 -51 0
5 21 49 0
-5 -21 -49 0
10 21 50 0
-10 -21 -50 0
15 21 51 0
-15 -21 -51 0
1 22 48 0
-1 -22 -48 0
6 22 49 0
-6 -22 -49 0
11 22 50 0
-11 -22 -50 0
16 22 51 0
-16 -22 -51 0
2 23 48 0
-2 -23 -48 0
7 23 49 0
-7 -23 -49 0
12 23 50 0
-12 -23 -50 0
17 23 51 0
-17 -23 -51 0
3 24 48 0
-3 -24 -48 0
8 24 49 0
-8 -24 -49 0
13 24 50 0
-13 -24 -50 0
18 24 51 0
-18 -24 -51 0
4 25 48 0
-4 -25 -48 0
9 25 49 0
-9 -25 -49 0
14 25 50 0
-14 -25 -50 0
19 25 51 0
-19 -25 -51 0
5 26 48 0
-5 -26 -48 0
10 26 49 0
-10 -26 -49 0
15 26 50 0
-15 -26 -50 0
20 26 51 0
-20 -26 -51 0
1 27 47 0
-1 -27 -47 0
6 27 48 0
-6 -27 -48 0
11 27 49 0
-11 -27 -49 0
16 27 50 0
-16 -27 -50 0
21 27 51 0
-21 -27 -51 0
2 28 47 0
-2 -28 -47 0
7 28 48 0
-7 -28 -48 0
12 28 49 0
-12 -28 -49 0
17 28 50 0
-17 -28 -50 0
22 28 51 0
-22 -28 -51 0
3 29 47 0
-3 -29 -47 0
8 29 48 0
-8 -29 -48 0
13 29 49 0
-13 -29 -49 0
18 29 50 0
-18 -29 -50 0
23 29 51 0
-23 -29 -51 0
4 30 47 0
-4 -30 -47 0
9 30 48 0
-9 -30 -48 0
14 30 49 0
-14 -30 -49 0
19 30 50 0
-19 -30 -50 0
24 30 51 0
-24 -30 -51 0
5 31 47 0
-5 -31 -47 0
10 31 48 0
-10 -31 -48 0
15 31 49 0
-15 -31 -49 0
20 31 50 0
-20 -31 -50 0
25 31 51 0
-25 -31 -51 0
1 32 46 0
-1 -32 -46 0
6 32 47 0
-6 -32 -47 0
11 32 48 0
-11 -32 -48 0
16 32 49 0
-16 -32 -49 0
21 32 50 0
-21 -32 -50 0
26 32 51 0
-26 -32 -51 0
2 33 46 0
-2 -33 -46 0
7 33 47 0
-7 -33 -47 0
12 33 48 0
-12 -33 -48 0
17 33 49 0
-17 -33 -49 0
22 33 50 0
-22 -33 -50 0
27 33 51 0
-27 -33 -51 0
3 34 46 0
-3 -34 -46 0
8 34 47 0
-8 -34 -47 0
13 34 48 0
-13 -34 -48 0
18 34 49 0
-18 -34 -49 0
23 34 50 0
-23 -34 -50 0
28 34 51 0
-28 -34 -51 0
4 35 46 0
-4 -35 -46 0
9 35 47 0
-9 -35 -47 0
14 35 48 0
-14 -35 -48 0
19 35 49 0
-19 -35 -49 0
24 35 50 0
-24 -35 -50 0
29 35 51 0
-29 -35 -51 0
5 36 46 0
-5 -36 -46 0
10 36 47 0
-10 -36 -47 0
15 36 48 0
-15 -36 -48 0
20 36 49 0
-20 -36 -49 0
25 36 50 0
-25 -36 -50 0
30 36 51 0
-30 -36 -51 0
1 37 45 0
-1 -37 -45 0
6 37 46 0
-6 -37 -46 0
11 37 47 0
-11 -37 -47 0
16 37 48 0
-16 -37 -48 0
21 37 49 0
-21 -37 -49 0
26 37 50 0
-26 -37 -50 0
31 37 51 0
-31 -37 -51 0
2 38 45 0
-2 -38 -45 0
7 38 46 0
-7 -38 -46 0
12 38 47 0
-12 -38 -47 0
17 38 48 0
-17 -38 -48 0
22 38 49 0
-22 -38 -49 0
27 38 50 0
-27 -38 -50 0
32 38 51 0
-32 -38 -51 0
3 39 45 0
-3 -39 -45 0
8 39 46 0
-8 -39 -46 0
13 39 47 0
-13 -39 -47 0
18 39 48 0
-18 -39 -48 0
23 39 49 0
-23 -39 -49 0
28 39 50 0
-28 -39 -50 0
33 39 51 0
-33 -39 -51 0
4 40 45 0
-4 -40 -45 0
9 40 46 0
-9 -40 -46 0
14 40 47 0
-14 -40 -47 0
19 40 48 0
-19 -40 -48 0
24 40 49 0
-24 -40 -49 0
29 40 50 0
-29 -40 -50 0
34 40 51 0
-34 -40 -51 0
5 41 45 0
-5 -41 -45 0
10 41 46 0
-10 -41 -46 0
15 41 47 0
-15 -41 -47 0
20 41 48 0
-20 -41 -48 0
25 41 49 0
-25 -41 -49 0
30 41 50 0
-30 -41 -50 0
35 41 51 0
-35 -41 -51 0
1 42 44 0
-1 -42 -44 0
6 42 45 0
-6 -42 -45 0
11 42 46 0
-11 -42 -46 0
16 42 47 0
-16 -42 -47 0
21 42 48 0
-21 -42 -48 0
26 42 49 0
-26 -42 -49 0
31 42 50 0
-31 -42 -50 0
36 42 51 0
-36 -42 -51 0
2 43 44 0
-2 -43 -44 0
7 43 45 0
-7 -43 -45 0
12 43 46 0
-12 -43 -46 0
17 43 47 0
-17 -43 -47 0
22 43 48 0
-22 -43 -48 0
27 43 49 0
-27 -43 -49 0
32 43 50 0
-32 -43 -50 0
37 43 51 0
-37 -43 -51 0
3 44 0
-3 -44 0
8 44 45 0
-8 -44 -45 0
13 44 46 0
-13 -44 -46 0
18 44 47 0
-18 -44 -47 0
23 44 48 0
-23 -44 -48 0
28 44 49 0
-28 -44 -49 0
33 44 50 0
-33 -44 -50 0
38 44 51 0
-38 -44 -51 0
4 44 45 0
-4 -44 -45 0
9 45 0
-9 -45 0
14 45 46 0
-14 -45 -46 0
19 45 47 0
-19 -45 -47 0
24 45 48 0
-24 -45 -48 0
29 45 49 0
-29 -45 -49 0
34 45 50 0
-34 -45 -50 0
39 45 51 0
-39 -45 -51 0
5 44 46 0
-5 -44 -46 0
10 45 46 0
-10 -45 -46 0
15 46 0
-15 -46 0
20 46 47 0
-20 -46 -47 0
25 46 48 0
-25 -46 -48 0
30 46 49 0
-30 -46 -49 0
35 46 50 0
-35 -46 -50 0
40 46 51 0
-40 -46 -51 0
1 43 47 0
-1 -43 -47 0
6 44 47 0
-6 -44 -47 0
11 45 47 0
-11 -45 -47 0
16 46 47 0
-16 -46 -47 0
21 47 0
-21 -47 0
26 47 48 0
-26 -47 -48 0
31 47 49 0
-31 -47 -49 0
36 47 50 0
-36 -47 -50 0
41 47 51 0
-41 -47 -51 0
2 43 48 0
-2 -43 -48 0
7 44 48 0
-7 -44 -48 0
12 45 48 0
-12 -45 -48 0
17 46 48 0
-17 -46 -48 0
22 47 48 0
-22 -47 -48 0
27 48 0
-27 -48 0
32 48 49 0
-32 -48 -49 0
37 48 50 0
-37 -48 -50 0
42 48 51 0
-42 -48 -51 0
3 43 49 0
-3 -43 -49 0
8 44 49 0
-8 -44 -49 0
13 45 49 0
-13 -45 -49 0
18 46 49 0
-18 -46 -49 0
23 47 49 0
-23 -47 -49 0
28 48 49 0
-28 -48 -49 0
33 49 0
-33 -49 0
38 49 50 0
-38 -49 -50 0
43 49 51 0
-43 -49 -51 0
4 43 50 0
-4 -43 -50 0
9 44 50 0
-9 -44 -50 0
14 45 50 0
-14 -45 -50 0
19 46 50 0
-19 -46 -50 0
24 47 50 0
-24 -47 -50 0
29 48 50 0
-29 -48 -50 0
34 49 50 0
-34 -49 -50 0
39 50 0
-39 -50 0
44 50 51 0
-44 -50 -51 0
5 43 51 0
-5 -43 -51 0
10 44 51 0
-10 -44 -51 0
15 45 51 0
-15 -45 -51 0
20 46 51 0
-20 -46 -51 0
25 47 51 0
-25 -47 -51 0
30 48 51 0
-30 -48 -51 0
35 49 51 0
-35 -49 -51 0
40 50 51 0
-40 -50 -51 0
45 51 0
-45 -51 0
