certificates/rado_a5_c261_N51.drat
-44 -51 0
d -38 -44 -51 0
-9 -51 0
d -9 -3 -51 0
-51 0
45 0
-9 0
3 0
15 0
-44 0
-39 0
-46 0
38 0
50 0
10 0
8 0
33 0
40 0
20 0
13 0
5 0
-2 0
-27 0
-49 0
-14 0
-4 0
-16 0
-34 0
-26 0
-21 0
-19 0
-22 0
-29 0
-31 0
-24 0
-41 0
43 0
11 0
0
